files/upTests/_tuples_of_matrix/simple/0001.eprime
language ESSENCE' 1.0

find y_tuple1_tuple1: matrix indexed by [int(1)] of int(10, 11)
find y_tuple1_tuple2: matrix indexed by [int(1)] of int(12, 13)
find y_tuple1_tuple3: matrix indexed by [int(1)] of int(3)
such that
    forAll v__0 : int(1)
        . y_tuple1_tuple1[v__0] = [10][v__0]
          /\
          (y_tuple1_tuple2[v__0] = [12][v__0] /\ y_tuple1_tuple3[v__0] = [3][v__0])
