files/upTests/_tuples_of_matrix/simple/0001.eprime.solution
language ESSENCE' 1.0
$ minion Nodes: 1
$ minion TotalTime: 0.000346
$ Savile Row TotalTime: 0.141
letting y_tuple1_tuple2 be [12;int(1)]
letting y_tuple1_tuple3 be [3;int(1)]
letting y_tuple1_tuple1 be [10;int(1)]
